NAME: SCAIL105_3333_02
COMMENT: Generated as the SCAIL100 dataset for the MIM2025 SCLDC Challenge
TYPE: Multi-Depot CVRP
DEPOTS: 3
DIMENSION: 108
EDGE_WEIGHT_TYPE: EUC_2D
CAPACITY: 63

NODE_COORD_SECTION 
1    697  162 
2    828  685 
3    369  855 
4    964  643 
5    922  36  
6    264  844 
7    153  736 
8    607  362 
9    362  677 
10   276  793 
11   514  274 
12   543  255 
13   282  824 
14   934  695 
15   165  977 
16   472  359 
17   501  285 
18   381  793 
19   472  670 
20   207  741 
21   390  759 
22   433  913 
23   216  817 
24   864  572 
25   181  871 
26   333  801 
27   772  409 
28   984  456 
29   368  526 
30   958  455 
31   905  538 
32   186  915 
33   581  743 
34   732  756 
35   284  755 
36   512  527 
37   947  510 
38   895  609 
39   522  522 
40   498  674 
41   332  834 
42   272  829 
43   132  788 
44   380  557 
45   168  573 
46   233  730 
47   424  752 
48   537  928 
49   273  894 
50   402  822 
51   236  24  
52   356  690 
53   278  609 
54   177  139 
55   141  640 
56   942  570 
57   315  902 
58   153  721 
59   227  963 
60   928  534 
61   125  842 
62   478  990 
63   716  855 
64   180  332 
65   911  640 
66   930  781 
67   271  837 
68   477  731 
69   370  879 
70   170  897 
71   285  801 
72   319  748 
73   904  465 
74   891  28  
75   331  786 
76   286  818 
77   873  633 
78   929  631 
79   973  747 
80   933  674 
81   851  815 
82   372  808 
83   928  641 
84   274  791 
85   684  619 
86   929  389 
87   937  619 
88   456  815 
89   837  589 
90   441  653 
91   690  573 
92   181  241 
93   954  326 
94   921  924 
95   521  972 
96   982  327 
97   240  848 
98   270  773 
99   181  835 
100  252  687 
101  865  601 
102  372  476 
103  188  804 
104  316  733 
105  255  757 
106  927  661 
107  740  880 
108  741  467 

DEMAND_SECTION
1    0   
2    0   
3    0   
4    10  
5    10  
6    7   
7    8   
8    7   
9    9   
10   8   
11   8   
12   7   
13   10  
14   5   
15   7   
16   7   
17   9   
18   5   
19   7   
20   10  
21   5   
22   5   
23   9   
24   9   
25   9   
26   6   
27   8   
28   9   
29   5   
30   7   
31   9   
32   5   
33   8   
34   9   
35   7   
36   9   
37   5   
38   9   
39   6   
40   9   
41   9   
42   8   
43   7   
44   8   
45   8   
46   8   
47   8   
48   6   
49   5   
50   7   
51   10  
52   6   
53   7   
54   7   
55   9   
56   10  
57   10  
58   6   
59   10  
60   8   
61   5   
62   5   
63   7   
64   10  
65   7   
66   8   
67   6   
68   10  
69   6   
70   9   
71   5   
72   9   
73   5   
74   5   
75   8   
76   7   
77   5   
78   5   
79   7   
80   5   
81   7   
82   8   
83   7   
84   5   
85   7   
86   7   
87   6   
88   10  
89   6   
90   6   
91   7   
92   7   
93   8   
94   7   
95   10  
96   6   
97   8   
98   8   
99   5   
100  9   
101  8   
102  10  
103  5   
104  5   
105  6   
106  10  
107  8   
108  10  

DEPOT_SECTION
1    697  162 
2    828  685 
3    369  855 
-1
EOF
